W = 9;
H = 5;

cost = array2d(1..H,1..W,[1 | r in 1..H, c in 1..W]);
reward = [| 0,0,5,2,4,1,0,0,0
          | 0,4,0,-1,0,0,7,0,0
          | 2,0,0,0,7,0,6,0,5
          | 1,4,0,3,0,0,0,6,-1
          | -1,-1,7,0,0,3,0,1,-1
          |];

length = 16; 
budget = 16;                  
          